Academic license - for non-commercial use only
Optimize a model with 22 rows, 31 columns and 52 nonzeros
Variable types: 21 continuous, 10 integer (10 binary)
Coefficient statistics:
  Matrix range     [1e+00, 2e+01]
  Objective range  [1e+00, 9e+01]
  Bounds range     [1e+00, 1e+00]
  RHS range        [2e+00, 2e+01]
Presolve removed 9 rows and 11 columns
Presolve time: 0.00s
Presolved: 13 rows, 20 columns, 32 nonzeros
Variable types: 13 continuous, 7 integer (7 binary)

Root relaxation: objective 8.572816e+02, 12 iterations, 0.00 seconds

    Nodes    |    Current Node    |     Objective Bounds      |     Work
 Expl Unexpl |  Obj  Depth IntInf | Incumbent    BestBd   Gap | It/Node Time

     0     0  857.28158    0    4          -  857.28158      -     -    0s
H    0     0                     935.0000000  857.28158  8.31%     -    0s
H    0     0                     930.0000000  857.28158  7.82%     -    0s
     0     0  915.33333    0    1  930.00000  915.33333  1.58%     -    0s
H    0     0                     923.0000000  915.33333  0.83%     -    0s
     0     0     cutoff    0       923.00000  923.00000  0.00%     -    0s

Cutting planes:
  Gomory: 1
  Implied bound: 3

Explored 1 nodes (17 simplex iterations) in 0.00 seconds
Thread count was 4 (of 4 available processors)

Solution count 3: 923 930 935 

Optimal solution found (tolerance 1.00e-04)
Best objective 9.230000000000e+02, best bound 9.230000000000e+02, gap 0.0000%
===============================
Solucão ótima encontrada.
Número de nós explorados: 1
Melhor limitante dual: 923.00
Melhor limitante primal: 923.00
Gap de otimalidade: 0.00
Tempo de execucão: 0.00
